# Solution for model F-JSSP-SDST
# Objective value = 204
B0(10) 1
B1(10) 1
B2(7) 0
B3(9) 0
B4(7) 1
B5(7) 1
B6(0) 0
B7(2) 0
B8(2) 1
B9(0) 0
B10(2) 1
B11(0) 0
B12(4) 1
B13(2) 0
B14(0) 0
B15(0) 0
B16(0) 0
B17(0) 0
B18(0) 0
B19(0) 0
B20(0) 0
B21(0) 0
I22(11) 0
I23(12) 48
I24(10) 0
I25(9) 0
I26(7) 9
I27(8) 49
I28(1) 204
